mixintcount/benchmarks/random_v2l/8_8_630.in
32 10
#	x1	x2	x3	x4	x5	x6	x7	x8;		0 = Real; 1 = Integer
	1	1	1	1	1	1	1	1
1	10	9	3	-3	9	-10	3	2	-497
1	2	5	1	-7	-7	-5	4	8	-310
1	0	5	1	9	3	7	-1	0	624
1	-4	-9	2	-4	-10	-2	7	-5	557
1	7	9	9	3	0	3	-7	1	-268
1	-2	-5	-1	1	5	-7	-9	1	-566
1	8	10	-7	1	-6	-5	-10	-2	188
1	-1	-6	-3	5	10	-5	3	2	258
1	-7	3	-8	7	9	-3	-4	-1	-340
1	-3	1	0	-9	-4	-2	-8	5	-339
1	-3	6	10	-1	-6	-9	6	7	-449
1	9	0	2	-1	3	-6	1	-2	-88
1	8	2	0	7	9	-10	-5	8	15
1	3	9	10	-8	-5	5	-9	2	-266
1	-10	-5	3	-9	-7	-10	1	1	626
1	4	-9	10	4	8	-1	-7	2	-356
1	1	0	0	0	0	0	0	0	630
1	-1	0	0	0	0	0	0	0	630
1	0	1	0	0	0	0	0	0	630
1	0	-1	0	0	0	0	0	0	630
1	0	0	1	0	0	0	0	0	630
1	0	0	-1	0	0	0	0	0	630
1	0	0	0	1	0	0	0	0	630
1	0	0	0	-1	0	0	0	0	630
1	0	0	0	0	1	0	0	0	630
1	0	0	0	0	-1	0	0	0	630
1	0	0	0	0	0	1	0	0	630
1	0	0	0	0	0	-1	0	0	630
1	0	0	0	0	0	0	1	0	630
1	0	0	0	0	0	0	-1	0	630
1	0	0	0	0	0	0	0	1	630
1	0	0	0	0	0	0	0	-1	630
